Minimize

2.0 x_0 + 3.0 x_1 + 5.0 x_2 + 3.5 x_3 + 1.5 x_4 + 4.5 x_5 + 6.0 x_6 + 1.0 x_7


Subject To

a0: 1 x_0 + 0 x_1 + 0 x_2 + 0 x_3 + 0 x_4 + 0 x_5 + 0 x_6 + 1 x_7 >= 1
a1: 1 x_0 + 0 x_1 + 0 x_2 + 0 x_3 + 0 x_4 + 1 x_5 + 1 x_6 + 0 x_7 >= 1
a2: 1 x_0 + 1 x_1 + 0 x_2 + 0 x_3 + 1 x_4 + 0 x_5 + 0 x_6 + 0 x_7 >= 1
a3: 0 x_0 + 0 x_1 + 1 x_2 + 1 x_3 + 0 x_4 + 0 x_5 + 0 x_6 + 0 x_7 >= 1
a4: 0 x_0 + 0 x_1 + 1 x_2 + 0 x_3 + 0 x_4 + 1 x_5 + 1 x_6 + 1 x_7 >= 1
a5: 0 x_0 + 0 x_1 + 0 x_2 + 1 x_3 + 1 x_4 + 0 x_5 + 0 x_6 + 1 x_7 >= 1
a6: 0 x_0 + 0 x_1 + 0 x_2 + 1 x_3 + 0 x_4 + 1 x_5 + 0 x_6 + 0 x_7 >= 1
b0: y_0 + y_1 + y_2 <= 3
c0: 1 x_0 - y_0 <= 0
c1: 0 x_0 - y_1 <= 0
c2: 0 x_0 - y_2 <= 0
c3: 0 x_1 - y_0 <= 0
c4: 1 x_1 - y_1 <= 0
c5: 0 x_1 - y_2 <= 0
c6: 0 x_2 - y_0 <= 0
c7: 1 x_2 - y_1 <= 0
c8: 0 x_2 - y_2 <= 0
c9: 1 x_3 - y_0 <= 0
c10: 0 x_3 - y_1 <= 0
c11: 0 x_3 - y_2 <= 0
c12: 0 x_4 - y_0 <= 0
c13: 0 x_4 - y_1 <= 0
c14: 1 x_4 - y_2 <= 0
c15: 0 x_5 - y_0 <= 0
c16: 1 x_5 - y_1 <= 0
c17: 0 x_5 - y_2 <= 0
c18: 0 x_6 - y_0 <= 0
c19: 0 x_6 - y_1 <= 0
c20: 1 x_6 - y_2 <= 0
c21: 0 x_7 - y_0 <= 0
c22: 0 x_7 - y_1 <= 0
c23: 1 x_7 - y_2 <= 0




Binary

x_0 x_1 x_2 x_3 x_4 x_5 x_6 x_7 y_0 y_1 y_2

 


End
